RT is False
Default write of storage_offers_DA.csv just to have a file (but constraint should be inactive)
Reading model...
...model read.
creating competitive generators file...
...competitive generators recorded.
Loading data...
.. day-ahead data with real-time VRE data read.
Compiling instance...
...instance created.
Creating Offer Mitigation (model will solve as dispatch if TRUE)...
Solving...

Welcome to IBM(R) ILOG(R) CPLEX(R) Interactive Optimizer 12.9.0.0
  with Simplex, Mixed Integer & Barrier Optimizers
5725-A06 5725-A29 5724-Y48 5724-Y49 5724-Y54 5724-Y55 5655-Y21
Copyright IBM Corp. 1988, 2019.  All Rights Reserved.

Type 'help' for a list of available commands.
Type 'help' followed by a command name for more
information on commands.

CPLEX> Logfile 'cplex.log' closed.
Logfile 'C:\Users\llavin\Desktop\test919\logs\tmps2md3jf8.cplex.log' open.
CPLEX> New value for parallel optimization mode: -1
CPLEX> New value for mixed integer optimality gap tolerance: 0.01
CPLEX> New value for integrality tolerance: 1e-09
CPLEX> New value for feasibility tolerance: 0.01
CPLEX> New value for deterministic time limit in ticks: 75000
CPLEX> Problem 'C:\Users\llavin\Desktop\test919\logs\tmpenh4ns5z.pyomo.lp' read.
Read time = 0.06 sec. (3.04 ticks)
CPLEX> Problem name         : C:\Users\llavin\Desktop\test919\logs\tmpenh4ns5z.pyomo.lp
Objective sense      : Minimize
Variables            :   26081  [Nneg: 1,  Box: 21616,  Free: 4464]
Objective nonzeros   :    2496
Linear constraints   :   27515  [Less: 14006,  Greater: 4416,  Equal: 9093]
  Nonzeros           :   89267
  RHS nonzeros       :   12271

Variables            : Min LB: -5000.000        Max UB: 1000000.       
Objective nonzeros   : Min   : 15.73158         Max   : 124.0997       
Linear constraints   :
  Nonzeros           : Min   : 0.8500000        Max   : 3000.000       
  RHS nonzeros       : Min   : 0.008333333      Max   : 5000.000       
CPLEX> CPXPARAM_Parallel                                -1
CPXPARAM_Simplex_Tolerances_Feasibility          0.01
CPXPARAM_DetTimeLimit                            75000
CPXPARAM_MIP_Tolerances_MIPGap                   0.01
CPXPARAM_MIP_Tolerances_Integrality              1.0000000000000001e-09
Parallel mode: opportunistic, using up to 32 threads for concurrent optimization.
Tried aggregator 1 time.
LP Presolve eliminated 21353 rows and 15463 columns.
Aggregator did 770 substitutions.
Reduced LP has 5392 rows, 9848 columns, and 31812 nonzeros.
Presolve time = 0.06 sec. (30.44 ticks)
Symmetry aggregator did 5563 additional substitutions.

Iteration log . . .
Iteration:     1   Dual objective     =             0.000000
Perturbation started.
Iteration:   101   Dual objective     =             0.000000
Iteration:   331   Dual objective     =             1.128310
Iteration:   582   Dual objective     =             1.659323
Iteration:   839   Dual objective     =             1.796910
Iteration:  1034   Dual objective     =             1.908746
Iteration:  1308   Dual objective     =             1.956490
Iteration:  1552   Dual objective     =             1.985589
Iteration:  1776   Dual objective     =             2.012864
Iteration:  1993   Dual objective     =          3238.604063
Iteration:  2187   Dual objective     =          7324.950405
Iteration:  2404   Dual objective     =         53569.378338
Iteration:  2696   Dual objective     =         69615.429661
Iteration:  3050   Dual objective     =         73879.812801
Removing perturbation.
Dual superbasis not built.
Using devex.

Primal simplex solved model.


Primal simplex - Optimal:  Objective =  7.3892570237e+04
Solution time =    0.17 sec.  Iterations = 1511 (1022)
Deterministic time = 77.13 ticks  (448.42 ticks/sec)

CPLEX> Solution written to file 'C:\Users\llavin\Desktop\test919\logs\tmpscyrz8xm.cplex.sol'.
CPLEX> Exporting results... 
...storage offer mitigation file created
Converting model to MPEC...
...converted
NOTE: initial MIP solve with only storage competitive to get feasible solution
Solving...

Welcome to IBM(R) ILOG(R) CPLEX(R) Interactive Optimizer 12.9.0.0
  with Simplex, Mixed Integer & Barrier Optimizers
5725-A06 5725-A29 5724-Y48 5724-Y49 5724-Y54 5724-Y55 5655-Y21
Copyright IBM Corp. 1988, 2019.  All Rights Reserved.

Type 'help' for a list of available commands.
Type 'help' followed by a command name for more
information on commands.

CPLEX> Logfile 'cplex.log' closed.
Logfile 'C:\Users\llavin\Desktop\test919\logs\tmpgfome2xo.cplex.log' open.
CPLEX> New value for parallel optimization mode: -1
CPLEX> New value for mixed integer optimality gap tolerance: 0.01
CPLEX> New value for integrality tolerance: 1e-09
CPLEX> New value for feasibility tolerance: 0.01
CPLEX> New value for deterministic time limit in ticks: 75000
CPLEX> Problem 'C:\Users\llavin\Desktop\test919\logs\tmpjejludqn.pyomo.lp' read.
Read time = 0.25 sec. (14.78 ticks)
CPLEX> Problem name         : C:\Users\llavin\Desktop\test919\logs\tmpjejludqn.pyomo.lp
Objective sense      : Maximize
Variables            :   53805  [Nneg: 1,  Box: 22000,  Free: 4464,
                                 Binary: 27340]
Objective nonzeros   :    8980
Linear constraints   :  123205  [Less: 41346,  Greater: 59096,  Equal: 22763]
  Nonzeros           :  291801
  RHS nonzeros       :   67423

Variables            : Min LB: -5000.000        Max UB: 1000000.       
Objective nonzeros   : Min   : 0.008333333      Max   : 834.2500       
Linear constraints   :
  Nonzeros           : Min   : 0.008333333      Max   : 1000000.       
  RHS nonzeros       : Min   : 0.008333333      Max   : 1000000.       
CPLEX> CPXPARAM_Parallel                                -1
CPXPARAM_Simplex_Tolerances_Feasibility          0.01
CPXPARAM_DetTimeLimit                            75000
CPXPARAM_MIP_Tolerances_MIPGap                   0.01
CPXPARAM_MIP_Tolerances_Integrality              1.0000000000000001e-09
Tried aggregator 4 times.
MIP Presolve eliminated 88622 rows and 18922 columns.
MIP Presolve added 3387 rows and 0 columns.
MIP Presolve modified 24904 coefficients.
Aggregator did 13000 substitutions.
Reduced MIP has 24970 rows, 21327 columns, and 71223 nonzeros.
Reduced MIP has 8415 binaries, 0 generals, 0 SOSs, and 0 indicators.
Presolve time = 0.33 sec. (196.05 ticks)
Probing fixed 397 vars, tightened 2853 bounds.
Probing time = 1.20 sec. (882.66 ticks)
Tried aggregator 2 times.
MIP Presolve eliminated 896 rows and 794 columns.
MIP Presolve modified 2192 coefficients.
Aggregator did 36 substitutions.
Reduced MIP has 24038 rows, 20497 columns, and 68529 nonzeros.
Reduced MIP has 8018 binaries, 0 generals, 0 SOSs, and 0 indicators.
Presolve time = 0.11 sec. (66.38 ticks)
Probing time = 0.05 sec. (16.71 ticks)
Clique table members: 6348.
MIP emphasis: balance optimality and feasibility.
MIP search method: dynamic search.
Parallel mode: opportunistic, using up to 32 threads.
Root relaxation solution time = 0.48 sec. (385.17 ticks)

        Nodes                                         Cuts/
   Node  Left     Objective  IInf  Best Integer    Best Bound    ItCnt     Gap

      0     0     3227.1014  1633                   3227.1014     7146         
      0     2     3227.1014     3                     Cuts: 3     7146         
Elapsed time = 8.09 sec. (4968.75 ticks, tree = 0.02 MB, solutions = 1)
*    15+   71                         -341.8661     3227.1014              --- 
*   298    81      integral     0     3092.7747     3227.1014     7672    4.34%
*   484   109      integral     0     3227.1014     3227.1014     8800    0.00%
    499   135     3059.5820     1     3227.1014     3227.1014     8454    0.00%

Cover cuts applied:  2
Implied bound cuts applied:  2
Flow cuts applied:  2
Gomory fractional cuts applied:  2

Root node processing (before b&c):
  Real time             =    6.72 sec. (4933.70 ticks)
Parallel b&c, 32 threads:
  Real time             =    3.22 sec. (447.07 ticks)
  Sync time (average)   =    0.95 sec.
  Wait time (average)   =    0.00 sec.
                          ------------
Total (root+branch&cut) =    9.94 sec. (5380.77 ticks)

Solution pool: 10 solutions saved.

MIP - Integer optimal solution:  Objective =  3.2271014075e+03
Solution time =    9.97 sec.  Iterations = 10360  Nodes = 616
Deterministic time = 5380.92 ticks  (539.82 ticks/sec)

CPLEX> Incumbent solution written to file 'C:\Users\llavin\Desktop\test919\logs\tmp8q64up_r.cplex.sol'.
CPLEX> NOTE: no warmstart specified for MIP iteration, default behavior is true
NOTE: resolving with all competitive generators using storage-only solution to warmstart
Solving...

Welcome to IBM(R) ILOG(R) CPLEX(R) Interactive Optimizer 12.9.0.0
  with Simplex, Mixed Integer & Barrier Optimizers
5725-A06 5725-A29 5724-Y48 5724-Y49 5724-Y54 5724-Y55 5655-Y21
Copyright IBM Corp. 1988, 2019.  All Rights Reserved.

Type 'help' for a list of available commands.
Type 'help' followed by a command name for more
information on commands.

CPLEX> Logfile 'cplex.log' closed.
Logfile 'C:\Users\llavin\Desktop\test919\logs\tmpvhkbyj_p.cplex.log' open.
CPLEX> New value for parallel optimization mode: -1
CPLEX> New value for mixed integer optimality gap tolerance: 0.01
CPLEX> New value for integrality tolerance: 1e-09
CPLEX> New value for feasibility tolerance: 0.01
CPLEX> New value for deterministic time limit in ticks: 75000
CPLEX> Problem 'C:\Users\llavin\Desktop\test919\logs\tmpocvyb6m7.pyomo.lp' read.
Read time = 0.23 sec. (14.81 ticks)
CPLEX> MIP start file 'C:\Users\llavin\Desktop\test919\logs\tmpaoerz31r.cplex.mst' read.
CPLEX> Problem name         : C:\Users\llavin\Desktop\test919\logs\tmpocvyb6m7.pyomo.lp
Objective sense      : Maximize
Variables            :   54525  [Nneg: 1,  Box: 22720,  Free: 4464,
                                 Binary: 27340]
Objective nonzeros   :    9676
Linear constraints   :  123205  [Less: 41346,  Greater: 59096,  Equal: 22763]
  Nonzeros           :  291801
  RHS nonzeros       :   67423

Variables            : Min LB: -5000.000        Max UB: 1000000.       
Objective nonzeros   : Min   : 0.008333333      Max   : 786.0500       
Linear constraints   :
  Nonzeros           : Min   : 0.008333333      Max   : 1000000.       
  RHS nonzeros       : Min   : 0.008333333      Max   : 1000000.       
CPLEX> CPXPARAM_Parallel                                -1
CPXPARAM_Simplex_Tolerances_Feasibility          0.01
CPXPARAM_DetTimeLimit                            75000
CPXPARAM_MIP_Tolerances_MIPGap                   0.01
CPXPARAM_MIP_Tolerances_Integrality              1.0000000000000001e-09
Warning:  No solution found from 1 MIP starts.
Retaining values of one MIP start for possible repair.
Tried aggregator 4 times.
MIP Presolve eliminated 88622 rows and 19642 columns.
MIP Presolve added 3387 rows and 0 columns.
MIP Presolve modified 24904 coefficients.
Aggregator did 13000 substitutions.
Reduced MIP has 24970 rows, 21327 columns, and 71223 nonzeros.
Reduced MIP has 8415 binaries, 0 generals, 0 SOSs, and 0 indicators.
Presolve time = 0.31 sec. (196.47 ticks)
Probing fixed 397 vars, tightened 2853 bounds.
Probing time = 1.22 sec. (882.66 ticks)
Tried aggregator 2 times.
MIP Presolve eliminated 896 rows and 794 columns.
MIP Presolve modified 2192 coefficients.
Aggregator did 36 substitutions.
Reduced MIP has 24038 rows, 20497 columns, and 68529 nonzeros.
Reduced MIP has 8018 binaries, 0 generals, 0 SOSs, and 0 indicators.
Presolve time = 0.09 sec. (66.39 ticks)
Probing time = 0.03 sec. (16.71 ticks)
Clique table members: 6348.
MIP emphasis: balance optimality and feasibility.
MIP search method: dynamic search.
Parallel mode: opportunistic, using up to 32 threads.
Root relaxation solution time = 0.42 sec. (307.29 ticks)

        Nodes                                         Cuts/
   Node  Left     Objective  IInf  Best Integer    Best Bound    ItCnt     Gap

      0     0   173433.5993  1758                 173433.5993     6547         
      0     0   170093.8741   585                   Cuts: 865     6998         
      0     0   169445.7863   515                   Cuts: 280     7154         
      0     0   169351.1164   492                   Cuts: 130     7256         
      0     0   168084.3537   424                   Cuts: 130     7335         
      0     0   167850.5954   408                   Cuts: 107     7379         
      0     0   167733.8606   392                    Cuts: 83     7406         
      0     0   167676.2389   383                    Cuts: 66     7417         
      0     0   167676.2389   378                    Cuts: 48     7422         
      0     0   167676.2389   377                    Cuts: 44     7423         
Repair heuristic found nothing.
      0    28    infeasible                          Cuts: 34     9516         
Elapsed time = 11.30 sec. (6794.35 ticks, tree = 0.02 MB, solutions = 0)
    458    55    59834.8061   317                 140914.6396    15022         
    990   159    46734.7654   268                 140914.6396    20337         
   1672   365    20194.3250   259                 140914.6396    27795         
   2260   798    infeasible                       140914.6396    39359         
   2914   977    infeasible                       140914.6396    42320         
   3609  2084   -13262.6123   149                 140914.6396    49426         
   4433  1784     3760.1316   118                 140914.6396    47662         
   5544  3287    -1358.5141    97                 140914.6396    53001         
   6630  2760     1317.3884   109                 140914.6396    52341         
*  7148+ 3537                        -2064.3991   140914.6396              --- 
Elapsed time = 24.83 sec. (9084.69 ticks, tree = 25.40 MB, solutions = 1)
   9362  3651    14835.7636   224    -2064.3991   134700.3290    55081     --- 
  10153  3928        cutoff          -2064.3991   134700.3290    56137     --- 
  10157  5825    infeasible          -2064.3991    16626.8618    80393  905.41%
  10785    97     2324.4565    57    -2064.3991    14673.2675    81416  810.78%
  11717   388     4334.8694    51     3920.9842    14673.2675    88432  274.22%
  12562   636        cutoff           3920.9842     5475.8231    85201   39.65%
  13951   415        cutoff           3920.9842     5460.7533   123427   39.27%
  15213   337     4366.1991    41     3920.9842     4157.9116    99237    6.04%
  16292   600     4157.9116    50     3920.9842     4157.9116   105712    6.04%
  16712   332        cutoff           3920.9842     4157.9116   119185    6.04%
Elapsed time = 68.41 sec. (22987.15 ticks, tree = 3.27 MB, solutions = 2)
  16723   269     4157.9116    45     3920.9842     4157.9116   128932    6.04%
  16728   265     4157.9116    42     3920.9842     4157.9116   129120    6.04%

Clique cuts applied:  3
Cover cuts applied:  16
Implied bound cuts applied:  10
Flow cuts applied:  297
Mixed integer rounding cuts applied:  33
Gomory fractional cuts applied:  61

Root node processing (before b&c):
  Real time             =    9.95 sec. (6782.06 ticks)
Parallel b&c, 32 threads:
  Real time             =   58.77 sec. (18920.49 ticks)
  Sync time (average)   =    8.96 sec.
  Wait time (average)   =    0.18 sec.
                          ------------
Total (root+branch&cut) =   68.72 sec. (25702.55 ticks)

Solution pool: 2 solutions saved.

MIP - Integer optimal, tolerance (0.01/1e-06):  Objective =  3.9209841618e+03
Current MIP best bound =  3.9545195789e+03 (gap = 33.5354, 0.86%)
Solution time =   68.73 sec.  Iterations = 129946  Nodes = 16768 (259)
Deterministic time = 25702.71 ticks  (373.94 ticks/sec)

CPLEX> Incumbent solution written to file 'C:\Users\llavin\Desktop\test919\logs\tmpweznrgcn.cplex.sol'.
CPLEX> Exporting results... 
